c turning on binary mode checking
c parsing input formula with 202048 variables and 780985 clauses
c finished parsing, read 16452052 bytes from proof file
c detected empty clause; start verification via backward checking
c 6590 of 780985 clauses in core                            
c 6309 of 450192 lemmas in core using 32736 resolution steps
c 0 RAT lemmas in core; 365 redundant literals in core lemmas
s VERIFIED
c verification time: 1.941 seconds
